#== Basis set ==#
 ecut 5.0

#== Bands ==#
 nbdbuf 0

#== k-point grid ==#
 kpt
   1.0000000000e-03   5.0000000000e-01   2.5000000000e-01
   2.5100000000e-01   0.0000000000e+00   0.0000000000e+00
   2.5100000000e-01   2.5000000000e-01   2.5000000000e-01
   2.5100000000e-01   2.5000000000e-01   7.5000000000e-01
   2.5100000000e-01   5.0000000000e-01   0.0000000000e+00
   2.5100000000e-01   7.5000000000e-01   7.5000000000e-01
   5.0100000000e-01   0.0000000000e+00   7.5000000000e-01
   7.5100000000e-01   0.0000000000e+00   0.0000000000e+00
   7.5100000000e-01   0.0000000000e+00   5.0000000000e-01
   7.5100000000e-01   7.5000000000e-01   7.5000000000e-01
 kptopt 0
 nkpt 10
 wtk
    0.1875000000000000    0.0312500000000000    0.0937500000000000
    0.1875000000000000    0.0937500000000000    0.0937500000000000
    0.0937500000000000    0.0312500000000000    0.0937500000000000
    0.0937500000000000

#== SCF procedure ==#
 iscf -3
 tolwfr 1e-16

#== Unit cell ==#
 acell    1.0    1.0    1.0
 natom 2
 ntypat 2
 rprim
    0.000000000000    5.341783322614    5.341783322614
    5.341783322614    0.000000000000    5.341783322614
    5.341783322614    5.341783322614    0.000000000000
 typat 1 2
 xred
    0.0000000000    0.0000000000    0.0000000000
    0.2500000000    0.2500000000    0.2500000000
 znucl 31 33

#== Symmetries ==#
 nsym 24
 symrel
 1 0 0
 0 1 0
 0 0 1
 1 0 -1
 0 1 -1
 0 0 -1
 0 1 -1
 0 0 -1
 1 0 -1
 -1 1 0
 -1 0 0
 -1 0 1
 0 -1 0
 0 -1 1
 1 -1 0
 -1 0 0
 -1 0 1
 -1 1 0
 0 1 0
 1 0 0
 0 0 1
 0 1 -1
 1 0 -1
 0 0 -1
 -1 0 0
 -1 1 0
 -1 0 1
 0 0 -1
 0 1 -1
 1 0 -1
 0 -1 1
 0 -1 0
 1 -1 0
 -1 0 1
 -1 0 0
 -1 1 0
 0 1 0
 0 0 1
 1 0 0
 -1 1 0
 -1 0 1
 -1 0 0
 1 0 -1
 0 0 -1
 0 1 -1
 1 -1 0
 0 -1 0
 0 -1 1
 0 0 1
 0 1 0
 1 0 0
 -1 0 1
 -1 1 0
 -1 0 0
 0 -1 0
 1 -1 0
 0 -1 1
 0 0 -1
 1 0 -1
 0 1 -1
 1 0 0
 0 0 1
 0 1 0
 1 -1 0
 0 -1 1
 0 -1 0
 0 -1 1
 1 -1 0
 0 -1 0
 0 0 1
 1 0 0
 0 1 0
 tnons
    0.0    0.0    0.0
    0.0    0.0    0.0
    0.0    0.0    0.0
    0.0    0.0    0.0
    0.0    0.0    0.0
    0.0    0.0    0.0
    0.0    0.0    0.0
    0.0    0.0    0.0
    0.0    0.0    0.0
    0.0    0.0    0.0
    0.0    0.0    0.0
    0.0    0.0    0.0
    0.0    0.0    0.0
    0.0    0.0    0.0
    0.0    0.0    0.0
    0.0    0.0    0.0
    0.0    0.0    0.0
    0.0    0.0    0.0
    0.0    0.0    0.0
    0.0    0.0    0.0
    0.0    0.0    0.0
    0.0    0.0    0.0
    0.0    0.0    0.0
    0.0    0.0    0.0

#== Files ==#
 irdden 1
 irdwfk 0

#== Other ==#
 istwfk *1

