#== Basis set ==#
 ecut 5.0

#== Bands ==#
 nband 12
 nbdbuf 0

#== k-point grid ==#
 kpt
    0.0000000000    0.0000000000    0.0000000000
    0.0000000000    0.0000000000    0.5000000000
    0.0000000000    0.5000000000    0.5000000000
 kptopt 0
 nkpt 3
 wtk    0.1250000000000000    0.5000000000000000    0.3750000000000000

#== SCF procedure ==#
 iscf -3
 tolwfr 1e-16

#== Unit cell ==#
 acell    1.0    1.0    1.0
 natom 2
 ntypat 2
 rprim
    0.000000000000    5.341783322614    5.341783322614
    5.341783322614    0.000000000000    5.341783322614
    5.341783322614    5.341783322614    0.000000000000
 typat 1 2
 xred
    0.0000000000    0.0000000000    0.0000000000
    0.2500000000    0.2500000000    0.2500000000
 znucl 31 33

#== Symmetries ==#
 nsym 24
 symrel
 1 0 0
 0 1 0
 0 0 1
 1 0 -1
 0 1 -1
 0 0 -1
 0 1 -1
 0 0 -1
 1 0 -1
 -1 1 0
 -1 0 0
 -1 0 1
 0 -1 0
 0 -1 1
 1 -1 0
 -1 0 0
 -1 0 1
 -1 1 0
 0 1 0
 1 0 0
 0 0 1
 0 1 -1
 1 0 -1
 0 0 -1
 -1 0 0
 -1 1 0
 -1 0 1
 0 0 -1
 0 1 -1
 1 0 -1
 0 -1 1
 0 -1 0
 1 -1 0
 -1 0 1
 -1 0 0
 -1 1 0
 0 1 0
 0 0 1
 1 0 0
 -1 1 0
 -1 0 1
 -1 0 0
 1 0 -1
 0 0 -1
 0 1 -1
 1 -1 0
 0 -1 0
 0 -1 1
 0 0 1
 0 1 0
 1 0 0
 -1 0 1
 -1 1 0
 -1 0 0
 0 -1 0
 1 -1 0
 0 -1 1
 0 0 -1
 1 0 -1
 0 1 -1
 1 0 0
 0 0 1
 0 1 0
 1 -1 0
 0 -1 1
 0 -1 0
 0 -1 1
 1 -1 0
 0 -1 0
 0 0 1
 1 0 0
 0 1 0
 tnons
    0.0    0.0    0.0
    0.0    0.0    0.0
    0.0    0.0    0.0
    0.0    0.0    0.0
    0.0    0.0    0.0
    0.0    0.0    0.0
    0.0    0.0    0.0
    0.0    0.0    0.0
    0.0    0.0    0.0
    0.0    0.0    0.0
    0.0    0.0    0.0
    0.0    0.0    0.0
    0.0    0.0    0.0
    0.0    0.0    0.0
    0.0    0.0    0.0
    0.0    0.0    0.0
    0.0    0.0    0.0
    0.0    0.0    0.0
    0.0    0.0    0.0
    0.0    0.0    0.0
    0.0    0.0    0.0
    0.0    0.0    0.0
    0.0    0.0    0.0
    0.0    0.0    0.0

#== Files ==#
 irdden 1
 irdwfk 0

#== Other ==#
 istwfk *1

